! SP M062X def2-TZVP RIJCOSX def2/J SlowConv CPCM PAL4
%cpcm
 smd true
 SMDsolvent "CH2Cl2"
 end
%scf 
maxiter 250 
end
% maxcore 4000
*xyz 4 1
C	-4.360066753107599	-4.315976544375424	-1.0410483395313659
C	-3.0766667531075993	-4.987376544375423	-1.0879483395313658
C	-1.9996667531075993	-5.532876544375424	-1.113048339531366
C	-0.7042667531075992	-6.163576544375424	-1.1322483395313658
C	-0.6437667531075992	-7.529276544375424	-1.2325483395313659
C	0.5871332468924009	-8.160776544375423	-1.2532483395313658
C	1.7345332468924008	-7.382276544375424	-1.170748339531366
C	1.7083332468924008	-6.018176544375423	-1.069848339531366
C	2.8844332468924008	-5.196376544375424	-0.9835483395313659
C	3.8587332468924007	-4.490376544375423	-0.9075483395313659
C	5.026633246892401	-3.6742765443754237	-0.8280483395313659
C	6.280233246892402	-4.084376544375424	-1.239648339531366
C	7.387333246892402	-3.271776544375424	-1.149248339531366
C	7.241633246892401	-2.0139765443754234	-0.6338483395313659
N	6.032133246892402	-1.6086765443754234	-0.23294833953136596
C	4.945633246892402	-2.3976765443754235	-0.318448339531366
C	0.46343324689240084	-5.410476544375424	-1.0512483395313659
C	-5.492866753107599	-5.083476544375424	-1.1463483395313658
C	-6.7128667531075985	-4.443076544375423	-1.1015483395313659
C	-6.7890667531075986	-3.0925765443754236	-0.957448339531366
N	-5.658166753107599	-2.3732765443754236	-0.8573483395313659
C	-4.467766753107599	-2.9670765443754235	-0.8977483395313659
H	-1.5772667531075992	-8.093476544375424	-1.294548339531366
H	0.6136332468924008	-9.239276544375423	-1.332848339531366
H	2.7055332468924007	-7.870976544375424	-1.1863483395313659
H	6.426933246892402	-5.072676544375423	-1.651148339531366
H	8.363833246892401	-3.6142765443754237	-1.4788483395313659
H	8.091833246892401	-1.3312765443754238	-0.5417483395313659
H	4.000433246892401	-1.9914765443754234	0.029451660468634122
H	0.34993324689240085	-4.338776544375424	-0.973948339531366
H	-5.444366753107599	-6.1762765443754235	-1.2632483395313658
H	-7.636366753107598	-4.997576544375423	-1.179648339531366
H	-7.719266753107599	-2.5250765443754237	-0.9147483395313659
H	-3.5566667531075993	-2.351076544375424	-0.8132483395313659
C	-4.502835312491778	0.5002105868801037	-4.265662994863076
C	-3.241934061913309	0.6955814595893642	-4.952722954682067
C	-2.1819191330909047	0.8454509742382923	-5.511325442371238
C	-0.9053515567888488	1.014907002181259	-6.157755769419782
C	-0.8731409021373869	1.1158515335757269	-7.5243681889844805
C	0.33919665598853477	1.2791720652125638	-8.170819733265363
C	1.49734836052679	1.336138801114481	-7.406074886747378
C	1.499247031411605	1.2386447067935369	-6.04147701315186
C	2.686852162162966	1.2954133214309085	-5.233773157889799
C	3.6715114498992993	1.3380723349096195	-4.539439818892167
C	4.850104034943854	1.4006000924654165	-3.737355242296258
C	6.041368643334395	1.9557011800861925	-4.1638068167081315
C	7.160839130691705	2.000206165651713	-3.3644530375866446
C	7.091834654308063	1.4765476821942083	-2.1035221651983096
N	5.943036753302536	0.9372621772244749	-1.6824358595852758
C	4.844876199869221	0.890425983367378	-2.4584276571115242
C	0.27248144460754287	1.075654058094785	-5.418659621398832
C	-5.649056580116239	0.46765582547995754	-5.0196505101148565
C	-6.847618237603735	0.2817301448510253	-4.36436370688783
C	-6.890418428392696	0.1353731338979598	-3.0126354542374263
N	-5.747263246697466	0.1726621772244753	-2.3068358595852763
C	-4.577025795796176	0.35091900302180257	-2.915154503525039
H	-1.8139723876270955	1.064714112615402	-8.077368161939955
H	0.3434606579058741	1.3567641086419058	-9.249783102932797
H	2.4539023908371282	1.4642908346343624	-7.90656813685348
H	6.126806001646191	2.3774513809091378	-5.154976457037427
H	8.087450773742995	2.441426376833634	-3.7197138547426674
H	7.95490264790144	1.4884565224026431	-1.4309349530394757
H	3.952252638330754	0.43500324316726513	-2.0397999046929765
H	0.18148184661272793	0.9900367322344826	-4.345446139990163
H	-5.627525021671313	0.584825078170929	-6.113285484964679
H	-7.7803099701325	0.24780262283396082	-4.9078314293169285
H	-7.802334462506974	-0.01453300210257702	-2.4337668360565177
H	-3.655169018964309	0.37728740787867543	-2.310022906073325
C	-4.969321143864987	3.705791178214998	0.5427489115552075
C	-3.7962724636438785	4.537854348612426	0.7208522644144205
C	-2.808036559927522	5.2184303836142245	0.8562602375443225
C	-1.6149334938296025	6.011890059956018	1.0083756729455986
C	-1.7433101665416806	7.373150609817387	1.1050502574779526
C	-0.6140567745007433	8.159015620429132	1.25181030538009
C	0.62696039413939	7.536729213505636	1.2968799725485034
C	0.789007199041654	6.181514226467516	1.203235795323024
C	2.064344966226242	5.520049659842993	1.247871506282542
C	3.124607300375968	4.947119500710282	1.2805411487590475
C	4.390399589722783	4.290194297288178	1.331029041753081
C	5.529325975482591	4.856776652279235	1.8704181896165597
C	6.735880747789512	4.195500436861827	1.9035946624041222
C	6.810278006687213	2.9330369059133625	1.3843862544467322
N	5.713068796664697	2.376867393412981	0.8602807566632659
C	4.530407296344883	3.0174536757885804	0.824580749751579
C	-0.35736191059491096	5.4174141031834155	1.0569138008440906
C	-6.196934670845382	4.3189091535681365	0.5219749693769435
C	-7.311730227489842	3.5258026633488635	0.3524693291821839
C	-7.196159716523864	2.177877677906624	0.21047217915585092
N	-5.977231203335305	1.6122673934129816	0.23588075666326602
C	-4.885097253239441	2.355355731457625	0.3981950102273197
H	-2.7434478631079355	7.8108817097211904	1.0637711818566282
H	-0.7364539638308559	9.231243498160088	1.326288263600348
H	1.519082282553863	8.147286051728923	1.4119926717201239
H	5.501938458767191	5.852880243694289	2.2882908844629624
H	7.619108545978644	4.65963528579602	2.33252607709744
H	7.746879028251678	2.367202004421373	1.3877225185173594
H	3.688250872237169	2.4943522513706644	0.3812148206297551
H	-0.3218599434354367	4.3406126690106515	0.9754477852837012
H	-6.3034570236136345	5.407914221793364	0.635775890904321
H	-8.302457342748326	3.9551033055627816	0.3283270077047711
H	-8.03495012501793	1.4946774763433996	0.07328721204091826
H	-3.89792790645081	1.8635113769547114	0.41508499851973485
C	-4.826552584480809	-1.1103959530405298	3.7673635668869183
C	-3.631005154838169	-1.1451036553523615	4.585626879565122
C	-2.6257841799442168	-1.159897134999491	5.254537340384194
C	-1.413848690148353	-1.1665934866006638	6.033883102834015
C	-1.5139360175118928	-1.2719774681337643	7.3968701069310665
C	-0.3661201835968771	-1.2809329891588543	8.169381699114089
C	0.864145280505001	-1.1816861319842689	7.532206519764517
C	0.9980934145224497	-1.0753070247014442	6.174864468943518
C	2.2619260509556764	-0.9717402059633392	5.498096324640976
C	3.311829097369069	-0.8813293785747606	4.9124326281198485
C	4.56692880167133	-0.784682339552662	4.240335944517973
C	5.768190579040599	-1.1833010721823813	4.794576666793326
C	6.962374863990211	-1.0764822731653103	4.118799360459401
C	6.9600765992715505	-0.5574873206562689	2.854060080113676
N	5.802165290254564	-0.1690713281869175	2.309768276717176
C	4.631164343368064	-0.27064885195422084	2.964560067331737
C	-0.166410108310053	-1.068716499286793	5.424325082711557
C	-6.040744843836742	-1.2322232162872453	4.3952771399604345
C	-7.176978742993706	-1.1990040258775851	3.615284696538648
C	-7.094808041238766	-1.0500720003667594	2.2656592938619116
N	-5.8881347097454375	-0.9336713281869174	1.6853682767171763
C	-4.775838210550863	-0.9626398159396009	2.4156011742209924
H	-2.5067422285884398	-1.347308947269635	7.846591004265216
H	-0.4662813748443292	-1.3647971548572402	9.24322302700178
H	1.7707131386091357	-1.1879813272808617	8.132212469042237
H	5.802065704013402	-1.5972476815902725	5.7921190019690245
H	7.89549101912805	-1.3960676354130372	4.573391592308742
H	7.8838096272426395	-0.4525310623566939	2.276909132025469
H	3.736431480798817	0.0678724638279764	2.4504663857913664
H	-0.15340854315576377	-0.9882006075992548	4.3469455857425
H	-6.12029875504992	-1.3531874007529874	5.4858130363376345
H	-8.158514125723425	-1.2902758616466026	4.056510097490334
H	-7.951882415618555	-1.0158660659294472	1.5923057085660703
H	-3.7994256405941003	-0.8648525752993877	1.9118595650616936
Pd	-5.817698978221452	-0.38050457548122096	-0.31073379143404994
Pd	5.872601021778549	0.38409542451877887	0.31366620856594996
*
