! SP M062X def2-TZVP RIJCOSX def2/J SlowConv CPCM
%cpcm
 smd true
 SMDsolvent "CH2Cl2"
 end
%scf 
maxiter 250 
end
% maxcore 4000
*xyz 4 1
C	4.7635230727493925	-4.089578374076801	0.4250170827848062
C	3.528323072749392	-4.806678374076801	0.5729170827848062
C	2.4949230727493923	-5.423678374076801	0.6932170827848062
C	1.2764230727493924	-6.172378374076801	0.8192170827848062
C	1.2504230727493924	-7.543978374076801	0.9433170827848062
C	0.06752307274939236	-8.239678374076801	1.0628170827848062
C	-1.1226769272506076	-7.502278374076801	1.0545170827848063
C	-1.1350769272506076	-6.139978374076801	0.9331170827848062
C	-2.366476927250608	-5.374178374076801	0.9242170827848062
C	-3.3998769272506077	-4.751378374076801	0.9043170827848062
C	-4.638576927250607	-4.032278374076801	0.8904170827848062
C	-5.807176927250607	-4.5489783740768015	1.4084170827848062
C	-6.974576927250608	-3.816778374076801	1.3711170827848063
C	-6.9742769272506075	-2.557978374076801	0.8117170827848063
N	-5.829276927250607	-2.0795783740768012	0.3165170827848062
C	-4.669276927250607	-2.781678374076801	0.3423170827848062
C	0.06552307274939236	-5.473878374076801	0.8154170827848062
C	6.001023072749392	-4.674778374076801	0.49821708278480625
C	7.177123072749392	-3.931778374076801	0.34721708278480623
C	7.0417230727493925	-2.584978374076801	0.12121708278480625
N	5.841923072749393	-1.9993783740768012	0.0471170827848062
C	4.701223072749393	-2.732178374076801	0.19571708278480626
H	2.171123072749392	-8.105478374076801	0.9489170827848062
H	0.031423072749392364	-9.314878374076802	1.1608170827848063
H	-2.0534769272506077	-8.042078374076802	1.1479170827848062
H	-5.834676927250608	-5.534878374076801	1.8533170827848062
H	-7.890976927250607	-4.244678374076801	1.7875170827848061
H	-7.907376927250607	-1.977178374076801	0.7839170827848062
H	-3.812376927250608	-2.279678374076801	-0.09218291721519378
H	0.03752307274939236	-4.401078374076801	0.7207170827848062
H	6.068423072749392	-5.738078374076801	0.6774170827848063
H	8.144823072749393	-4.410778374076801	0.40811708278480624
H	7.927323072749393	-1.9869783740768012	0.001017082784806167
H	3.747623072749392	-2.223078374076801	0.12941708278480624
C	4.814321722475002	0.5672695873367661	4.0121009995736
C	3.5870326668433505	0.6780833388254703	4.7491951227408995
C	2.560630505005282	0.7673567683938483	5.382918648379044
C	1.3511996033510008	0.8567789034859595	6.151326428063293
C	1.3437303613517697	0.97997999980712	7.523233520504039
C	0.1692143933521295	1.0639735357495963	8.238068100552981
C	-1.0319990563707335	1.0200734215281053	7.520041138540942
C	-1.0628376533845025	0.8984208490539803	6.158056321245003
C	-2.3056695680144523	0.8526886760239215	5.412300187963352
C	-3.347969170675385	0.8018834803153624	4.806311920435113
C	-4.59719024016074	0.7509327586348906	4.107365246135773
C	-5.772246326906993	1.2336842430260944	4.643203885390793
C	-6.949720488718067	1.161479596689498	3.9299914504776616
C	-6.953075753933671	0.6023988225610168	2.67105407308543
N	-5.801667817484776	0.14172864283700556	2.17390485062245
C	-4.631732935833251	0.2022182851421226	2.8571349918404967
C	0.12979392538823492	0.8167551072940875	5.472532081019427
C	6.058397853120638	0.6774641054772551	4.57721627925516
C	7.22629418726351	0.5617833113465045	3.815181295435573
C	7.075909705624723	0.3318938723406736	2.4706312764642373
N	5.869532182515225	0.2219286428370062	1.9045048506224505
C	4.736921857500684	0.3362709908704739	2.6557664356357193
H	2.272829858978839	1.013119879337872	8.069747904481089
H	0.1476283147977373	1.1607978947323845	9.31376384504592
H	-1.9563066106600948	1.0855347492813743	8.074898417174284
H	-5.797070513174028	1.6775147776886798	5.629656766311773
H	-7.8711202817620425	1.550232555263747	4.372902150933506
H	-7.894216241321391	0.5466985102623665	2.1054312763299974
H	-3.7704577840186166	-0.20640469271408768	2.3410882547763054
H	0.08725726341835453	0.7213097833476126	4.40027616356072
H	6.137627877934153	0.8585517574766741	5.639380181607988
H	8.19937365833608	0.6516096272031373	4.278474589102504
H	7.954902505293669	0.23829386670856634	1.8582995876910546
H	3.777608017002905	0.24147071881904802	2.1621458081814167
C	4.682219462088262	4.154485885840287	-0.6430480512272337
C	3.4317781187935146	4.8545055140077205	-0.7335733358694637
C	2.3855511286479967	5.457215116738403	-0.8058704303288848
C	1.1523668152448212	6.189068084562196	-0.8752795267344972
C	1.1018319246020243	7.56014216621365	-0.9976129132295302
C	-0.09476579517361616	8.239491172560385	-1.0621882537508511
C	-1.2730745874819624	7.485815690592537	-0.999217245744145
C	-1.2611474881854132	6.123512441000685	-0.8778063300328636
C	-2.4801907502245224	5.340873936852394	-0.8123440729561846
C	-3.5029201897407134	4.703945005718561	-0.7449835486737063
C	-4.729665734473574	3.9679034116504632	-0.6741750020160334
C	-5.927907476703584	4.468339385009942	-1.1375424736250568
C	-7.082176119348004	3.720185770545269	-1.0466526514706593
C	-7.038776830768108	2.461686055258418	-0.48826133852455483
N	-5.865685738136568	1.99921508617461	-0.046568582026074556
C	-4.717864495911284	2.7171735466265314	-0.12563877212267907
C	-0.04735990169386441	5.474003184406386	-0.8158363334430377
C	5.906869557219181	4.756604834845488	-0.7730805308033073
C	7.098778190660789	4.0298768799138625	-0.6767399939132848
C	6.992461046630087	2.681415892615961	-0.44516056775300406
N	5.805514261863434	2.079415086174611	-0.3159685820260748
C	4.649215418155614	2.7964309930851794	-0.4115481995037217
H	2.0134937719915977	8.134233452470474	-1.045508331154572
H	-0.1501136379122055	9.314062778137563	-1.1580774126347897
H	-2.2145190496768694	8.012750346337617	-1.049401238982603
H	-5.989444057796365	5.453627559850263	-1.5803872903580065
H	-8.022602925269661	4.135326370497724	-1.4201925221338905
H	-7.961534944317138	1.8681333116924927	-0.417623568990136
H	-3.835015823981786	2.227128430742025	0.26870354981355654
H	-0.05622296417503188	4.400949875611148	-0.7202854433004282
H	5.9513187513767924	5.820673419512998	-0.9548622852849424
H	8.055967267062433	4.522103977721064	-0.782071167844209
H	7.890793807171817	2.0956743928040695	-0.36613812324772116
H	3.706772572211842	2.2743021154852165	-0.30148286751581543
C	4.631420812362651	-0.502362075573281	-4.230131968016027
C	3.3730685246995553	-0.6302561988945508	-4.909851375825559
C	2.3198436963921063	-0.7338200257322472	-5.4955719959231235
C	1.0775902846432128	-0.8400891930005645	-6.207388872012986
C	1.0085246359996467	-0.9638162076702711	-7.5775293509487645
C	-0.1964571157763533	-1.0641607372660142	-8.237439271519028
C	-1.3637524583618363	-1.0365361050123696	-7.464741301500283
C	-1.333386762051518	-0.9148867821300963	-6.102745568493062
C	-2.5409981094606775	-0.885993113248329	-5.30042717813473
C	-3.554827946315936	-0.8493168486736035	-4.646978386324014
C	-4.771052421563441	-0.8153077210612291	-3.8911231653670018
C	-5.962838077047198	-1.3143232320929534	-4.372329276231045
C	-7.107032557880545	-1.2580722002210294	-3.605527019163515
C	-7.059978004085043	-0.6986911413793992	-2.3475983288251787
N	-5.893294847902399	-0.22209193073919695	-1.903956349863719
C	-4.755408487328639	-0.2667231125923921	-2.6404566811783705
C	-0.11163075433270699	-0.816630296964502	-5.47295133167766
C	5.849494776847935	-0.5956376447085691	-4.852079727273662
C	7.04960707614667	-0.4636848055094434	-4.144704206564052
C	6.958274413754754	-0.2354563538015137	-2.7945747614324357
N	5.777905152097601	-0.14189193073919654	-2.1733563498637194
C	4.6135166334043225	-0.2720183718620953	-2.8715975523546353
H	1.911786985762151	-0.984364800944199	-8.16633915285086
H	-0.2663188799605504	-1.161613490671624	-9.311024174895907
H	-2.3116893662673825	-1.1148627770205595	-7.976382573372085
H	-6.027050471872943	-1.7587655919152176	-5.3567269738849745
H	-8.042459570758226	-1.6595845588428244	-4.0055775902825905
H	-7.9746956302463525	-0.6557435726466747	-1.7391377625353277
H	-3.8769349672137774	0.15385474937931143	-2.164567622177943
H	-0.10595715484399407	-0.7214382818132659	-4.399844524076343
H	5.882113946192031	-0.775956712040478	-5.916825384108125
H	8.001416681475744	-0.5402840235588745	-4.652428674161908
H	7.863214374627539	-0.12959784798129836	-2.22342062815397
H	3.6767876279583285	-0.19024697741063276	-2.334211592912426
Pd	5.823718667306413	0.04001835604890491	-0.1344257496206343
Pd	-5.8474813326935875	-0.04018164395109558	0.13497425037936583
*
